30
4	7	8	10	11	12	15	18	19	20	22	25	26	27	28	30	0
3	5	8	9	10	11	12	15	17	18	19	23	24	25	27	28	29	0
2	7	8	9	15	17	19	25	29	0
1	5	8	10	11	12	13	16	18	19	20	22	23	24	25	26	29	30	0
2	4	6	7	10	12	14	16	17	18	19	20	23	28	30	0
5	7	8	9	10	12	16	17	20	21	22	23	27	0
1	3	5	6	10	11	12	13	15	16	18	22	23	24	25	27	28	29	0
1	2	3	4	6	10	12	17	18	22	23	26	28	0
2	3	6	11	13	15	16	19	22	26	0
1	2	4	5	6	7	8	13	15	16	17	18	20	23	24	25	27	0
1	2	4	7	9	12	17	22	23	26	0
1	2	4	5	6	7	8	11	16	18	19	20	21	24	26	29	30	0
4	7	9	10	14	19	22	24	25	26	28	29	0
5	13	15	17	22	23	25	27	30	0
1	2	3	7	9	10	14	16	18	19	20	23	24	27	28	29	30	0
4	5	6	7	9	10	12	15	17	21	24	29	30	0
2	3	5	6	8	10	11	14	16	20	22	23	24	30	0
1	2	4	5	7	8	10	12	15	19	20	21	22	24	25	26	27	28	30	0
1	2	3	4	5	9	12	13	15	18	20	21	22	23	24	27	28	0
1	4	5	6	10	12	15	17	18	19	22	24	27	0
6	12	16	18	19	24	25	26	0
1	4	6	7	8	9	11	13	14	17	18	19	20	23	24	26	27	28	30	0
2	4	5	6	7	8	10	11	14	15	17	19	22	25	26	27	0
2	4	7	10	12	13	15	16	17	18	19	20	21	22	25	27	30	0
1	2	3	4	7	10	13	14	18	21	23	24	29	0
1	4	8	9	11	12	13	18	21	22	23	27	30	0
1	2	6	7	10	14	15	18	19	20	22	23	24	26	28	29	30	0
1	2	5	7	8	13	15	18	19	22	27	29	30	0
2	3	4	7	12	13	15	16	25	27	28	30	0
1	4	5	12	14	15	16	17	18	22	24	26	27	28	29	0


comments:
random graph
nodes 30
edges 215
rng seed 925 
